% File represents an instance of a Composite Structure problem to be solved by a CP framework
% Created on 2025-03-25 14:06:15.623
T = 48;
n = 36;
m = 60;
edges = [(2, 1),
(8, 7),
(13, 14),
(20, 19),
(26, 25),
(32, 31),
(2, 3),
(8, 9),
(14, 15),
(21, 20),
(27, 26),
(32, 33),
(3, 4),
(10, 9),
(16, 15),
(21, 22),
(27, 28),
(34, 33),
(5, 4),
(10, 11),
(17, 16),
(23, 22),
(29, 28),
(34, 35),
(6, 5),
(12, 11),
(18, 17),
(24, 23),
(29, 30),
(36, 35),
(1, 7),
(13, 7),
(13, 19),
(25, 19),
(31, 25),
(2, 8),
(8, 14),
(14, 20),
(26, 20),
(32, 26),
(3, 9),
(9, 15),
(21, 15),
(27, 21),
(27, 33),
(10, 4),
(10, 16),
(22, 16),
(28, 22),
(34, 28),
(5, 11),
(17, 11),
(23, 17),
(29, 23),
(29, 35),
(6, 12),
(18, 12),
(24, 18),
(30, 24),
(36, 30)];
counts = [|4, 8, 4, 14,
|6, 10, 4, 14,
|4, 10, 4, 14,
|2, 8, 2, 12,
|2, 10, 2, 12,
|2, 10, 6, 14,
|2, 8, 4, 14,
|6, 8, 4, 14,
|4, 8, 2, 12,
|4, 8, 2, 14,
|2, 8, 2, 10,
|2, 10, 4, 14,
|2, 10, 6, 14,
|2, 8, 4, 14,
|2, 8, 2, 10,
|2, 8, 2, 12,
|2, 10, 2, 12,
|2, 10, 6, 16,
|2, 8, 4, 8,
|2, 8, 4, 10,
|2, 8, 8, 12,
|2, 8, 6, 12,
|2, 10, 6, 16,
|2, 10, 6, 18,
|2, 8, 8, 8,
|2, 8, 8, 16,
|2, 10, 8, 18,
|2, 10, 6, 18,
|4, 12, 6, 22,
|4, 12, 6, 20,
|4, 10, 8, 14,
|4, 10, 8, 20,
|2, 8, 8, 18,
|2, 12, 10, 18,
|2, 12, 6, 18,
|4, 12, 12, 20|];
